certificates/rado_a5_c224_N44.cnf
c Rad2 upper bound instance: x1 + 5*x2 - x3 = 224, interval [1,44]
p cnf 44 360
1 5 44 0
-1 -5 -44 0
2 6 44 0
-2 -6 -44 0
3 7 44 0
-3 -7 -44 0
4 8 44 0
-4 -8 -44 0
5 9 44 0
-5 -9 -44 0
1 10 43 0
-1 -10 -43 0
6 10 44 0
-6 -10 -44 0
2 11 43 0
-2 -11 -43 0
7 11 44 0
-7 -11 -44 0
3 12 43 0
-3 -12 -43 0
8 12 44 0
-8 -12 -44 0
4 13 43 0
-4 -13 -43 0
9 13 44 0
-9 -13 -44 0
5 14 43 0
-5 -14 -43 0
10 14 44 0
-10 -14 -44 0
1 15 42 0
-1 -15 -42 0
6 15 43 0
-6 -15 -43 0
11 15 44 0
-11 -15 -44 0
2 16 42 0
-2 -16 -42 0
7 16 43 0
-7 -16 -43 0
12 16 44 0
-12 -16 -44 0
3 17 42 0
-3 -17 -42 0
8 17 43 0
-8 -17 -43 0
13 17 44 0
-13 -17 -44 0
4 18 42 0
-4 -18 -42 0
9 18 43 0
-9 -18 -43 0
14 18 44 0
-14 -18 -44 0
5 19 42 0
-5 -19 -42 0
10 19 43 0
-10 -19 -43 0
15 19 44 0
-15 -19 -44 0
1 20 41 0
-1 -20 -41 0
6 20 42 0
-6 -20 -42 0
11 20 43 0
-11 -20 -43 0
16 20 44 0
-16 -20 -44 0
2 21 41 0
-2 -21 -41 0
7 21 42 0
-7 -21 -42 0
12 21 43 0
-12 -21 -43 0
17 21 44 0
-17 -21 -44 0
3 22 41 0
-3 -22 -41 0
8 22 42 0
-8 -22 -42 0
13 22 43 0
-13 -22 -43 0
18 22 44 0
-18 -22 -44 0
4 23 41 0
-4 -23 -41 0
9 23 42 0
-9 -23 -42 0
14 23 43 0
-14 -23 -43 0
19 23 44 0
-19 -23 -44 0
5 24 41 0
-5 -24 -41 0
10 24 42 0
-10 -24 -42 0
15 24 43 0
-15 -24 -43 0
20 24 44 0
-20 -24 -44 0
1 25 40 0
-1 -25 -40 0
6 25 41 0
-6 -25 -41 0
11 25 42 0
-11 -25 -42 0
16 25 43 0
-16 -25 -43 0
21 25 44 0
-21 -25 -44 0
2 26 40 0
-2 -26 -40 0
7 26 41 0
-7 -26 -41 0
12 26 42 0
-12 -26 -42 0
17 26 43 0
-17 -26 -43 0
22 26 44 0
-22 -26 -44 0
3 27 40 0
-3 -27 -40 0
8 27 41 0
-8 -27 -41 0
13 27 42 0
-13 -27 -42 0
18 27 43 0
-18 -27 -43 0
23 27 44 0
-23 -27 -44 0
4 28 40 0
-4 -28 -40 0
9 28 41 0
-9 -28 -41 0
14 28 42 0
-14 -28 -42 0
19 28 43 0
-19 -28 -43 0
24 28 44 0
-24 -28 -44 0
5 29 40 0
-5 -29 -40 0
10 29 41 0
-10 -29 -41 0
15 29 42 0
-15 -29 -42 0
20 29 43 0
-20 -29 -43 0
25 29 44 0
-25 -29 -44 0
1 30 39 0
-1 -30 -39 0
6 30 40 0
-6 -30 -40 0
11 30 41 0
-11 -30 -41 0
16 30 42 0
-16 -30 -42 0
21 30 43 0
-21 -30 -43 0
26 30 44 0
-26 -30 -44 0
2 31 39 0
-2 -31 -39 0
7 31 40 0
-7 -31 -40 0
12 31 41 0
-12 -31 -41 0
17 31 42 0
-17 -31 -42 0
22 31 43 0
-22 -31 -43 0
27 31 44 0
-27 -31 -44 0
3 32 39 0
-3 -32 -39 0
8 32 40 0
-8 -32 -40 0
13 32 41 0
-13 -32 -41 0
18 32 42 0
-18 -32 -42 0
23 32 43 0
-23 -32 -43 0
28 32 44 0
-28 -32 -44 0
4 33 39 0
-4 -33 -39 0
9 33 40 0
-9 -33 -40 0
14 33 41 0
-14 -33 -41 0
19 33 42 0
-19 -33 -42 0
24 33 43 0
-24 -33 -43 0
29 33 44 0
-29 -33 -44 0
5 34 39 0
-5 -34 -39 0
10 34 40 0
-10 -34 -40 0
15 34 41 0
-15 -34 -41 0
20 34 42 0
-20 -34 -42 0
25 34 43 0
-25 -34 -43 0
30 34 44 0
-30 -34 -44 0
1 35 38 0
-1 -35 -38 0
6 35 39 0
-6 -35 -39 0
11 35 40 0
-11 -35 -40 0
16 35 41 0
-16 -35 -41 0
21 35 42 0
-21 -35 -42 0
26 35 43 0
-26 -35 -43 0
31 35 44 0
-31 -35 -44 0
2 36 38 0
-2 -36 -38 0
7 36 39 0
-7 -36 -39 0
12 36 40 0
-12 -36 -40 0
17 36 41 0
-17 -36 -41 0
22 36 42 0
-22 -36 -42 0
27 36 43 0
-27 -36 -43 0
32 36 44 0
-32 -36 -44 0
3 37 38 0
-3 -37 -38 0
8 37 39 0
-8 -37 -39 0
13 37 40 0
-13 -37 -40 0
18 37 41 0
-18 -37 -41 0
23 37 42 0
-23 -37 -42 0
28 37 43 0
-28 -37 -43 0
33 37 44 0
-33 -37 -44 0
4 38 0
-4 -38 0
9 38 39 0
-9 -38 -39 0
14 38 40 0
-14 -38 -40 0
19 38 41 0
-19 -38 -41 0
24 38 42 0
-24 -38 -42 0
29 38 43 0
-29 -38 -43 0
34 38 44 0
-34 -38 -44 0
5 38 39 0
-5 -38 -39 0
10 39 0
-10 -39 0
15 39 40 0
-15 -39 -40 0
20 39 41 0
-20 -39 -41 0
25 39 42 0
-25 -39 -42 0
30 39 43 0
-30 -39 -43 0
35 39 44 0
-35 -39 -44 0
1 37 40 0
-1 -37 -40 0
6 38 40 0
-6 -38 -40 0
11 39 40 0
-11 -39 -40 0
16 40 0
-16 -40 0
21 40 41 0
-21 -40 -41 0
26 40 42 0
-26 -40 -42 0
31 40 43 0
-31 -40 -43 0
36 40 44 0
-36 -40 -44 0
2 37 41 0
-2 -37 -41 0
7 38 41 0
-7 -38 -41 0
12 39 41 0
-12 -39 -41 0
17 40 41 0
-17 -40 -41 0
22 41 0
-22 -41 0
27 41 42 0
-27 -41 -42 0
32 41 43 0
-32 -41 -43 0
37 41 44 0
-37 -41 -44 0
3 37 42 0
-3 -37 -42 0
8 38 42 0
-8 -38 -42 0
13 39 42 0
-13 -39 -42 0
18 40 42 0
-18 -40 -42 0
23 41 42 0
-23 -41 -42 0
28 42 0
-28 -42 0
33 42 43 0
-33 -42 -43 0
38 42 44 0
-38 -42 -44 0
4 37 43 0
-4 -37 -43 0
9 38 43 0
-9 -38 -43 0
14 39 43 0
-14 -39 -43 0
19 40 43 0
-19 -40 -43 0
24 41 43 0
-24 -41 -43 0
29 42 43 0
-29 -42 -43 0
34 43 0
-34 -43 0
39 43 44 0
-39 -43 -44 0
5 37 44 0
-5 -37 -44 0
10 38 44 0
-10 -38 -44 0
15 39 44 0
-15 -39 -44 0
20 40 44 0
-20 -40 -44 0
25 41 44 0
-25 -41 -44 0
30 42 44 0
-30 -42 -44 0
35 43 44 0
-35 -43 -44 0
40 44 0
-40 -44 0
