certificates/rado_a5_c224_N44.drat
-44 0
40 0
-16 0
12 0
20 0
-36 0
32 0
-8 0
4 0
-38 0
-28 0
2 0
34 0
42 0
10 0
24 0
-26 0
0
